qbf_easy_train/easy_1758_UNSAT.qdimacs
p cnf 29 77
a 19 12 6 0
e 1 2 3 4 5 7 8 9 10 11 13 14 15 16 17 18 20 21 22 23 24 25 26 27 28 29 0
3 -1 0
3 2 0
1 -2 -3 0
1 -4 0
-1 -4 0
-8 -6 0
-8 -7 0
6 7 8 0
5 8 -9 0
-5 -8 -9 0
5 -8 9 0
-5 8 9 0
10 4 0
10 -9 0
-4 9 -10 0
-3 -10 -11 0
3 10 -11 0
-3 10 11 0
3 -10 11 0
14 -12 0
14 -13 0
12 13 -14 0
-4 -2 -15 0
4 2 -15 0
-4 2 15 0
4 -2 15 0
-16 -12 0
-16 -12 0
12 16 0
-17 15 0
-17 16 0
-15 -16 17 0
-18 1 0
-18 4 0
-1 -4 18 0
-17 -18 -19 0
17 18 -19 0
-17 18 19 0
17 -18 19 0
20 14 0
20 -19 0
-14 19 -20 0
-22 12 0
-22 21 0
-12 -21 22 0
23 22 0
23 4 0
-22 -4 -23 0
-9 -1 -24 0
9 1 -24 0
-9 1 24 0
9 -1 24 0
25 22 0
25 -8 0
-22 8 -25 0
26 -24 0
26 -25 0
24 25 -26 0
-23 26 -27 0
23 -26 -27 0
-23 -26 27 0
23 26 27 0
-28 -20 0
-28 -27 0
20 27 28 0
-11 -28 -29 0
11 28 -29 0
-11 28 29 0
11 -28 29 0
-14 8 -25 0
-11 -18 6 0
11 2 -24 13 -16 0
26 -27 4 5 -6 -25 0
-19 -10 -6 13 -7 0
-25 -19 6 2 9 -11 0
-26 -7 22 1 -11 0
29 0
