sat_easy_train/easy_1758_UNSAT.dimacs
p cnf 114 378
-4 2 0
-4 3 0
-2 -3 4 0
5 -1 0
5 4 0
1 -4 -5 0
-7 5 0
-7 -6 0
-5 6 7 0
10 8 0
10 -9 0
-8 9 -10 0
-10 4 -11 0
10 -4 -11 0
-10 -4 11 0
10 4 11 0
-13 -12 0
-13 3 0
12 -3 13 0
11 -13 -14 0
-11 13 -14 0
11 13 14 0
-11 -13 14 0
16 -14 0
16 15 0
14 -15 -16 0
-7 -16 -17 0
7 16 -17 0
-7 16 17 0
7 -16 17 0
20 -8 0
20 19 0
8 -19 -20 0
6 20 -21 0
-6 -20 -21 0
6 -20 21 0
-6 20 21 0
-18 -21 -22 0
18 21 -22 0
-18 21 22 0
18 -21 22 0
-24 -21 0
-24 -23 0
21 23 24 0
25 -26 -27 0
-25 26 -27 0
25 26 27 0
-25 -26 27 0
24 -27 -28 0
-24 27 -28 0
24 27 28 0
-24 -27 28 0
3 27 -29 0
-3 -27 -29 0
3 -27 29 0
-3 27 29 0
-28 -29 -30 0
28 29 -30 0
-28 29 30 0
28 -29 30 0
-31 -22 0
-31 30 0
22 -30 31 0
-32 25 0
-32 6 0
-25 -6 32 0
33 19 0
33 32 0
-19 -32 -33 0
15 -33 -34 0
-15 33 -34 0
15 33 34 0
-15 -33 34 0
35 11 0
35 34 0
-11 -34 -35 0
36 35 0
36 6 0
-35 -6 -36 0
-37 -31 0
-37 -36 0
31 36 37 0
17 -37 -38 0
-17 37 -38 0
17 37 38 0
-17 -37 38 0
40 32 0
40 -21 0
-32 21 -40 0
39 -3 -41 0
-39 3 -41 0
39 3 41 0
-39 -3 41 0
-42 -25 0
-42 -41 0
25 41 42 0
42 32 -43 0
-42 -32 -43 0
42 -32 43 0
-42 32 43 0
-44 21 0
-44 43 0
-21 -43 44 0
45 40 0
45 -44 0
-40 44 -45 0
-39 -45 -46 0
39 45 -46 0
-39 45 46 0
39 -45 46 0
47 38 0
47 -46 0
-38 46 -47 0
49 -39 0
49 -2 0
39 2 -49 0
-50 -49 0
-50 13 0
49 -13 50 0
51 -48 0
51 50 0
48 -50 -51 0
-52 43 0
-52 -4 0
-43 4 52 0
53 -26 0
53 26 0
-54 53 0
-54 -21 0
-53 21 54 0
11 -54 -55 0
-11 54 -55 0
11 54 55 0
-11 -54 55 0
56 -8 0
56 -26 0
8 26 -56 0
57 -56 0
57 3 0
56 -3 -57 0
55 -57 -58 0
-55 57 -58 0
55 57 58 0
-55 -57 58 0
-52 -58 -59 0
52 58 -59 0
-52 58 59 0
52 -58 59 0
51 59 -60 0
-51 -59 -60 0
51 -59 60 0
-51 59 60 0
47 60 -61 0
-47 -60 -61 0
47 -60 61 0
-47 60 61 0
-62 -15 0
-62 -42 0
15 42 62 0
63 2 0
63 -26 0
-2 26 -63 0
19 -63 -64 0
-19 63 -64 0
19 63 64 0
-19 -63 64 0
-65 -62 0
-65 64 0
62 -64 65 0
66 65 0
66 -56 0
-65 56 -66 0
67 -18 0
67 -66 0
18 66 -67 0
-68 -40 0
-68 -44 0
40 44 68 0
69 -67 0
69 -68 0
67 68 -69 0
-70 -1 0
-70 4 0
1 -4 70 0
-71 -1 0
-71 70 0
1 -70 71 0
-72 -71 0
-72 -63 0
71 63 72 0
39 62 -73 0
-39 -62 -73 0
39 -62 73 0
-39 62 73 0
74 70 0
74 -63 0
-70 63 -74 0
54 74 -75 0
-54 -74 -75 0
54 -74 75 0
-54 74 75 0
73 75 -76 0
-73 -75 -76 0
73 -75 76 0
-73 75 76 0
-77 72 0
-77 76 0
-72 -76 77 0
-78 -5 0
-78 10 0
5 -10 78 0
79 77 0
79 78 0
-77 -78 -79 0
-69 79 -80 0
69 -79 -80 0
-69 -79 80 0
69 79 80 0
-61 80 -81 0
61 -80 -81 0
-61 -80 81 0
61 80 81 0
82 44 0
82 -50 0
-44 50 -82 0
-84 82 0
-84 -83 0
-82 83 84 0
85 11 0
85 1 0
-11 -1 -85 0
-85 21 -86 0
85 -21 -86 0
-85 -21 86 0
85 21 86 0
87 -62 0
87 44 0
62 -44 -87 0
86 87 -88 0
-86 -87 -88 0
86 -87 88 0
-86 87 88 0
-89 -84 0
-89 88 0
84 -88 89 0
-90 -44 0
-90 -5 0
44 5 90 0
-91 89 0
-91 -90 0
-89 90 91 0
92 -33 0
92 25 0
33 -25 -92 0
93 25 0
93 5 0
-25 -5 -93 0
83 -56 -94 0
-83 56 -94 0
83 56 94 0
-83 -56 94 0
95 74 0
95 18 0
-74 -18 -95 0
94 -95 -96 0
-94 95 -96 0
94 95 96 0
-94 -95 96 0
97 8 0
97 -94 0
-8 94 -97 0
-98 97 0
-98 -40 0
-97 40 98 0
-99 26 0
-99 -23 0
-26 23 99 0
-100 99 0
-100 -64 0
-99 64 100 0
-98 100 -101 0
98 -100 -101 0
-98 -100 101 0
98 100 101 0
102 96 0
102 -101 0
-96 101 -102 0
-15 -19 -103 0
15 19 -103 0
-15 19 103 0
15 -19 103 0
104 -103 0
104 9 0
103 -9 -104 0
-105 -12 0
-105 20 0
12 -20 105 0
104 105 -106 0
-104 -105 -106 0
104 -105 106 0
-104 105 106 0
102 -106 -107 0
-102 106 -107 0
102 106 107 0
-102 -106 107 0
-108 93 0
-108 -107 0
-93 107 108 0
109 44 0
109 -24 0
-44 24 -109 0
110 -73 0
110 -109 0
73 109 -110 0
108 -110 -111 0
-108 110 -111 0
108 110 111 0
-108 -110 111 0
112 92 0
112 -111 0
-92 111 -112 0
-91 -112 -113 0
91 112 -113 0
-91 112 113 0
91 -112 113 0
-114 81 0
-114 113 0
-81 -113 114 0
-19 -58 0
74 -33 38 51 0
-45 -98 -4 -49 48 0
70 38 -63 -91 -59 -5 0
99 -7 -14 87 0
58 78 91 0
-61 27 97 0
-20 6 -11 -45 -46 -24 0
21 22 -106 0
-103 -46 0
92 20 -33 -28 74 -51 0
67 -35 0
86 22 -6 91 0
35 33 -44 0
-88 -30 -4 24 58 -71 0
-4 -105 -111 35 -99 66 0
32 -27 0
-87 -104 22 -31 39 111 0
90 78 -15 70 -80 0
93 64 -75 -73 -65 0
-48 87 34 -71 -30 -8 0
-101 0
27 103 17 -110 -52 84 0
-5 -93 31 0
97 50 0
-72 -101 18 65 -114 0
-53 -29 0
40 -111 42 0
48 -10 7 0
90 19 -34 -66 -86 0
-68 64 16 53 93 0
-86 94 0
109 71 2 -73 0
-37 48 0
52 88 0
-23 15 -46 -58 -50 0
91 44 -64 0
-114 78 48 0
109 44 0
-94 100 -6 -13 -19 -97 0
-91 18 77 61 34 -21 0
84 40 0
-3 35 -36 99 0
-93 -21 75 33 0
-77 -48 -29 26 -3 0
-76 61 -12 -20 -37 0
49 -21 94 -61 -25 0
10 -3 107 0
74 55 40 -12 -41 -4 0
114 0
